(set-logic ALL)
(declare-fun seed0_T_1 () Int)
(declare-fun seed0_T_2 () Bool)
(declare-fun seed0_var_0xINPUT_190404 () String)
(assert (and (or (>= seed0_T_1 (str.len seed0_var_0xINPUT_190404)) (not (str.contains (str.++ seed0_var_0xINPUT_190404 "NKmvIi4e8tL") (str.++ seed0_var_0xINPUT_190404 "as")))) (or (= seed0_T_2 (= seed0_T_1 0)) (not (> (mod seed0_T_1 seed0_T_1) (- seed0_T_1 426)))) (or seed0_T_2 (and (= (- seed0_T_1 764) (+ seed0_T_1 939)) (> (mod seed0_T_1 seed0_T_1) (+ seed0_T_1 (- 906)))))))
(check-sat)
(exit)